c In Weigthed Partial Max-SAT, the parameters line is 'p wcnf nbvar nbclauses top'
c Where p is the weight
c nbvar is the nu	mber of a variables appearing in the file (TYPEBITS +1)
c nbclauses is the exact number of clauses contained in the file
c see http://maxsat.ia.udl.cat/requirements/
p wcnf 11 288
7020.820968121574 -3 -4 -1 -2 -5 -1 -2
7021.820968121574 3 -4 -1 -2 -5 -1 -2
7022.820968121574 -3 4 -1 -2 -5 -1 -2
7022.820968121574 3 4 -1 -2 -5 -1 -2
7023.820968121574 -3 -4 1 -2 -5 -1 -2
7023.820968121574 3 -4 1 -2 -5 -1 -2
7023.820968121574 -3 4 1 -2 -5 -1 -2
7023.820968121574 3 4 1 -2 -5 -1 -2
7024.820968121574 -3 -4 -1 2 -5 -1 -2
7024.820968121574 3 -4 -1 2 -5 -1 -2
7024.820968121574 -3 4 -1 2 -5 -1 -2
7024.820968121574 3 4 -1 2 -5 -1 -2
7024.820968121574 -3 -4 1 2 -5 -1 -2
7024.820968121574 3 -4 1 2 -5 -1 -2
7024.820968121574 -3 4 1 2 -5 -1 -2
7024.820968121574 3 4 1 2 -5 -1 -2
7025.820968121574 -3 -4 -1 -2 5 -1 -2
7025.820968121574 3 -4 -1 -2 5 -1 -2
7025.820968121574 -3 4 -1 -2 5 -1 -2
7025.820968121574 3 4 -1 -2 5 -1 -2
7025.820968121574 -3 -4 1 -2 5 -1 -2
7025.820968121574 3 -4 1 -2 5 -1 -2
7025.820968121574 -3 4 1 -2 5 -1 -2
7025.820968121574 3 4 1 -2 5 -1 -2
7025.820968121574 -3 -4 -1 2 5 -1 -2
7025.820968121574 3 -4 -1 2 5 -1 -2
7025.820968121574 -3 4 -1 2 5 -1 -2
7025.820968121574 3 4 -1 2 5 -1 -2
7025.820968121574 -3 -4 1 2 5 -1 -2
7025.820968121574 3 -4 1 2 5 -1 -2
7025.820968121574 -3 4 1 2 5 -1 -2
7025.820968121574 3 4 1 2 5 -1 -2
7026.820968121574 -3 -4 -1 -2 -5 1 -2
7026.820968121574 3 -4 -1 -2 -5 1 -2
7026.820968121574 -3 4 -1 -2 -5 1 -2
7026.820968121574 3 4 -1 -2 -5 1 -2
7026.820968121574 -3 -4 1 -2 -5 1 -2
7026.820968121574 3 -4 1 -2 -5 1 -2
7026.820968121574 -3 4 1 -2 -5 1 -2
7026.820968121574 3 4 1 -2 -5 1 -2
7026.820968121574 -3 -4 -1 2 -5 1 -2
7026.820968121574 3 -4 -1 2 -5 1 -2
7026.820968121574 -3 4 -1 2 -5 1 -2
7026.820968121574 3 4 -1 2 -5 1 -2
7026.820968121574 -3 -4 1 2 -5 1 -2
7026.820968121574 3 -4 1 2 -5 1 -2
7026.820968121574 -3 4 1 2 -5 1 -2
7026.820968121574 3 4 1 2 -5 1 -2
7026.820968121574 -3 -4 -1 -2 5 1 -2
7026.820968121574 3 -4 -1 -2 5 1 -2
7026.820968121574 -3 4 -1 -2 5 1 -2
7026.820968121574 3 4 -1 -2 5 1 -2
7026.820968121574 -3 -4 1 -2 5 1 -2
7026.820968121574 3 -4 1 -2 5 1 -2
7026.820968121574 -3 4 1 -2 5 1 -2
7026.820968121574 3 4 1 -2 5 1 -2
7026.820968121574 -3 -4 -1 2 5 1 -2
7026.820968121574 3 -4 -1 2 5 1 -2
7026.820968121574 -3 4 -1 2 5 1 -2
7026.820968121574 3 4 -1 2 5 1 -2
7026.820968121574 -3 -4 1 2 5 1 -2
7026.820968121574 3 -4 1 2 5 1 -2
7026.820968121574 -3 4 1 2 5 1 -2
7026.820968121574 3 4 1 2 5 1 -2
7027.820968121574 -3 -4 -1 -2 -5 -1 2
7027.820968121574 3 -4 -1 -2 -5 -1 2
7027.820968121574 -3 4 -1 -2 -5 -1 2
7027.820968121574 3 4 -1 -2 -5 -1 2
7027.820968121574 -3 -4 1 -2 -5 -1 2
7027.820968121574 3 -4 1 -2 -5 -1 2
7027.820968121574 -3 4 1 -2 -5 -1 2
7027.820968121574 3 4 1 -2 -5 -1 2
7027.820968121574 -3 -4 -1 2 -5 -1 2
7027.820968121574 3 -4 -1 2 -5 -1 2
7027.820968121574 -3 4 -1 2 -5 -1 2
7027.820968121574 3 4 -1 2 -5 -1 2
7027.820968121574 -3 -4 1 2 -5 -1 2
7027.820968121574 3 -4 1 2 -5 -1 2
7027.820968121574 -3 4 1 2 -5 -1 2
7027.820968121574 3 4 1 2 -5 -1 2
7027.820968121574 -3 -4 -1 -2 5 -1 2
7027.820968121574 3 -4 -1 -2 5 -1 2
7027.820968121574 -3 4 -1 -2 5 -1 2
7027.820968121574 3 4 -1 -2 5 -1 2
7027.820968121574 -3 -4 1 -2 5 -1 2
7027.820968121574 3 -4 1 -2 5 -1 2
7027.820968121574 -3 4 1 -2 5 -1 2
7027.820968121574 3 4 1 -2 5 -1 2
7027.820968121574 -3 -4 -1 2 5 -1 2
7027.820968121574 3 -4 -1 2 5 -1 2
7027.820968121574 -3 4 -1 2 5 -1 2
7027.820968121574 3 4 -1 2 5 -1 2
7027.820968121574 -3 -4 1 2 5 -1 2
7027.820968121574 3 -4 1 2 5 -1 2
7027.820968121574 -3 4 1 2 5 -1 2
7027.820968121574 3 4 1 2 5 -1 2
7027.820968121574 -3 -4 -1 -2 -5 1 2
7027.820968121574 3 -4 -1 -2 -5 1 2
7027.820968121574 -3 4 -1 -2 -5 1 2
7027.820968121574 3 4 -1 -2 -5 1 2
7027.820968121574 -3 -4 1 -2 -5 1 2
7027.820968121574 3 -4 1 -2 -5 1 2
7027.820968121574 -3 4 1 -2 -5 1 2
7027.820968121574 3 4 1 -2 -5 1 2
7027.820968121574 -3 -4 -1 2 -5 1 2
7027.820968121574 3 -4 -1 2 -5 1 2
7027.820968121574 -3 4 -1 2 -5 1 2
7027.820968121574 3 4 -1 2 -5 1 2
7027.820968121574 -3 -4 1 2 -5 1 2
7027.820968121574 3 -4 1 2 -5 1 2
7027.820968121574 -3 4 1 2 -5 1 2
7027.820968121574 3 4 1 2 -5 1 2
7027.820968121574 -3 -4 -1 -2 5 1 2
7027.820968121574 3 -4 -1 -2 5 1 2
7027.820968121574 -3 4 -1 -2 5 1 2
7027.820968121574 3 4 -1 -2 5 1 2
7027.820968121574 -3 -4 1 -2 5 1 2
7027.820968121574 3 -4 1 -2 5 1 2
7027.820968121574 -3 4 1 -2 5 1 2
7027.820968121574 3 4 1 -2 5 1 2
7027.820968121574 -3 -4 -1 2 5 1 2
7027.820968121574 3 -4 -1 2 5 1 2
7027.820968121574 -3 4 -1 2 5 1 2
7027.820968121574 3 4 -1 2 5 1 2
7027.820968121574 -3 -4 1 2 5 1 2
7027.820968121574 3 -4 1 2 5 1 2
7027.820968121574 -3 4 1 2 5 1 2
7027.820968121574 3 4 1 2 5 1 2
7157.272287873413 -6 -7 -1 -2 -8 -1 -2
7158.272287873413 6 -7 -1 -2 -8 -1 -2
7159.272287873413 -6 7 -1 -2 -8 -1 -2
7159.272287873413 6 7 -1 -2 -8 -1 -2
7160.272287873413 -6 -7 1 -2 -8 -1 -2
7160.272287873413 6 -7 1 -2 -8 -1 -2
7160.272287873413 -6 7 1 -2 -8 -1 -2
7160.272287873413 6 7 1 -2 -8 -1 -2
7161.272287873413 -6 -7 -1 2 -8 -1 -2
7161.272287873413 6 -7 -1 2 -8 -1 -2
7161.272287873413 -6 7 -1 2 -8 -1 -2
7161.272287873413 6 7 -1 2 -8 -1 -2
7161.272287873413 -6 -7 1 2 -8 -1 -2
7161.272287873413 6 -7 1 2 -8 -1 -2
7161.272287873413 -6 7 1 2 -8 -1 -2
7161.272287873413 6 7 1 2 -8 -1 -2
7162.272287873413 -6 -7 -1 -2 8 -1 -2
7162.272287873413 6 -7 -1 -2 8 -1 -2
7162.272287873413 -6 7 -1 -2 8 -1 -2
7162.272287873413 6 7 -1 -2 8 -1 -2
7162.272287873413 -6 -7 1 -2 8 -1 -2
7162.272287873413 6 -7 1 -2 8 -1 -2
7162.272287873413 -6 7 1 -2 8 -1 -2
7162.272287873413 6 7 1 -2 8 -1 -2
7162.272287873413 -6 -7 -1 2 8 -1 -2
7162.272287873413 6 -7 -1 2 8 -1 -2
7162.272287873413 -6 7 -1 2 8 -1 -2
7162.272287873413 6 7 -1 2 8 -1 -2
7162.272287873413 -6 -7 1 2 8 -1 -2
7162.272287873413 6 -7 1 2 8 -1 -2
7162.272287873413 -6 7 1 2 8 -1 -2
7162.272287873413 6 7 1 2 8 -1 -2
7163.272287873413 -6 -7 -1 -2 -8 1 -2
7163.272287873413 6 -7 -1 -2 -8 1 -2
7163.272287873413 -6 7 -1 -2 -8 1 -2
7163.272287873413 6 7 -1 -2 -8 1 -2
7163.272287873413 -6 -7 1 -2 -8 1 -2
7163.272287873413 6 -7 1 -2 -8 1 -2
7163.272287873413 -6 7 1 -2 -8 1 -2
7163.272287873413 6 7 1 -2 -8 1 -2
7163.272287873413 -6 -7 -1 2 -8 1 -2
7163.272287873413 6 -7 -1 2 -8 1 -2
7163.272287873413 -6 7 -1 2 -8 1 -2
7163.272287873413 6 7 -1 2 -8 1 -2
7163.272287873413 -6 -7 1 2 -8 1 -2
7163.272287873413 6 -7 1 2 -8 1 -2
7163.272287873413 -6 7 1 2 -8 1 -2
7163.272287873413 6 7 1 2 -8 1 -2
7163.272287873413 -6 -7 -1 -2 8 1 -2
7163.272287873413 6 -7 -1 -2 8 1 -2
7163.272287873413 -6 7 -1 -2 8 1 -2
7163.272287873413 6 7 -1 -2 8 1 -2
7163.272287873413 -6 -7 1 -2 8 1 -2
7163.272287873413 6 -7 1 -2 8 1 -2
7163.272287873413 -6 7 1 -2 8 1 -2
7163.272287873413 6 7 1 -2 8 1 -2
7163.272287873413 -6 -7 -1 2 8 1 -2
7163.272287873413 6 -7 -1 2 8 1 -2
7163.272287873413 -6 7 -1 2 8 1 -2
7163.272287873413 6 7 -1 2 8 1 -2
7163.272287873413 -6 -7 1 2 8 1 -2
7163.272287873413 6 -7 1 2 8 1 -2
7163.272287873413 -6 7 1 2 8 1 -2
7163.272287873413 6 7 1 2 8 1 -2
7164.272287873413 -6 -7 -1 -2 -8 -1 2
7164.272287873413 6 -7 -1 -2 -8 -1 2
7164.272287873413 -6 7 -1 -2 -8 -1 2
7164.272287873413 6 7 -1 -2 -8 -1 2
7164.272287873413 -6 -7 1 -2 -8 -1 2
7164.272287873413 6 -7 1 -2 -8 -1 2
7164.272287873413 -6 7 1 -2 -8 -1 2
7164.272287873413 6 7 1 -2 -8 -1 2
7164.272287873413 -6 -7 -1 2 -8 -1 2
7164.272287873413 6 -7 -1 2 -8 -1 2
7164.272287873413 -6 7 -1 2 -8 -1 2
7164.272287873413 6 7 -1 2 -8 -1 2
7164.272287873413 -6 -7 1 2 -8 -1 2
7164.272287873413 6 -7 1 2 -8 -1 2
7164.272287873413 -6 7 1 2 -8 -1 2
7164.272287873413 6 7 1 2 -8 -1 2
7164.272287873413 -6 -7 -1 -2 8 -1 2
7164.272287873413 6 -7 -1 -2 8 -1 2
7164.272287873413 -6 7 -1 -2 8 -1 2
7164.272287873413 6 7 -1 -2 8 -1 2
7164.272287873413 -6 -7 1 -2 8 -1 2
7164.272287873413 6 -7 1 -2 8 -1 2
7164.272287873413 -6 7 1 -2 8 -1 2
7164.272287873413 6 7 1 -2 8 -1 2
7164.272287873413 -6 -7 -1 2 8 -1 2
7164.272287873413 6 -7 -1 2 8 -1 2
7164.272287873413 -6 7 -1 2 8 -1 2
7164.272287873413 6 7 -1 2 8 -1 2
7164.272287873413 -6 -7 1 2 8 -1 2
7164.272287873413 6 -7 1 2 8 -1 2
7164.272287873413 -6 7 1 2 8 -1 2
7164.272287873413 6 7 1 2 8 -1 2
7164.272287873413 -6 -7 -1 -2 -8 1 2
7164.272287873413 6 -7 -1 -2 -8 1 2
7164.272287873413 -6 7 -1 -2 -8 1 2
7164.272287873413 6 7 -1 -2 -8 1 2
7164.272287873413 -6 -7 1 -2 -8 1 2
7164.272287873413 6 -7 1 -2 -8 1 2
7164.272287873413 -6 7 1 -2 -8 1 2
7164.272287873413 6 7 1 -2 -8 1 2
7164.272287873413 -6 -7 -1 2 -8 1 2
7164.272287873413 6 -7 -1 2 -8 1 2
7164.272287873413 -6 7 -1 2 -8 1 2
7164.272287873413 6 7 -1 2 -8 1 2
7164.272287873413 -6 -7 1 2 -8 1 2
7164.272287873413 6 -7 1 2 -8 1 2
7164.272287873413 -6 7 1 2 -8 1 2
7164.272287873413 6 7 1 2 -8 1 2
7164.272287873413 -6 -7 -1 -2 8 1 2
7164.272287873413 6 -7 -1 -2 8 1 2
7164.272287873413 -6 7 -1 -2 8 1 2
7164.272287873413 6 7 -1 -2 8 1 2
7164.272287873413 -6 -7 1 -2 8 1 2
7164.272287873413 6 -7 1 -2 8 1 2
7164.272287873413 -6 7 1 -2 8 1 2
7164.272287873413 6 7 1 -2 8 1 2
7164.272287873413 -6 -7 -1 2 8 1 2
7164.272287873413 6 -7 -1 2 8 1 2
7164.272287873413 -6 7 -1 2 8 1 2
7164.272287873413 6 7 -1 2 8 1 2
7164.272287873413 -6 -7 1 2 8 1 2
7164.272287873413 6 -7 1 2 8 1 2
7164.272287873413 -6 7 1 2 8 1 2
7164.272287873413 6 7 1 2 8 1 2
7723.2531829227155 -10 -9 -1 -2 -11
7731.2531829227155 10 -9 -1 -2 -11
7739.2531829227155 -10 9 -1 -2 -11
7739.2531829227155 10 9 -1 -2 -11
7747.2531829227155 -10 -9 1 -2 -11
7747.2531829227155 10 -9 1 -2 -11
7747.2531829227155 -10 9 1 -2 -11
7747.2531829227155 10 9 1 -2 -11
7747.2531829227155 -10 -9 -1 2 -11
7747.2531829227155 10 -9 -1 2 -11
7747.2531829227155 -10 9 -1 2 -11
7747.2531829227155 10 9 -1 2 -11
7747.2531829227155 -10 -9 1 2 -11
7747.2531829227155 10 -9 1 2 -11
7747.2531829227155 -10 9 1 2 -11
7747.2531829227155 10 9 1 2 -11
7747.2531829227155 -10 -9 -1 -2 11
7747.2531829227155 10 -9 -1 -2 11
7747.2531829227155 -10 9 -1 -2 11
7747.2531829227155 10 9 -1 -2 11
7747.2531829227155 -10 -9 1 -2 11
7747.2531829227155 10 -9 1 -2 11
7747.2531829227155 -10 9 1 -2 11
7747.2531829227155 10 9 1 -2 11
7747.2531829227155 -10 -9 -1 2 11
7747.2531829227155 10 -9 -1 2 11
7747.2531829227155 -10 9 -1 2 11
7747.2531829227155 10 9 -1 2 11
7747.2531829227155 -10 -9 1 2 11
7747.2531829227155 10 -9 1 2 11
7747.2531829227155 -10 9 1 2 11
7747.2531829227155 10 9 1 2 11
